8,8	0,0	12,9	14,8	0,0	0,0	0,0	0,0	0,0	9,6
18,4	7,1	0,0	7,8	16,3	0,0	0,0	17,4	0,0	0,0
0,0	0,0	6,8	0,0	7,4	8,5	0,0	0,0	9,1	0,0
19,9	0,0	10,2	0,0	0,0	0,0	13,9	0,0	0,0	0,0
0,0	17,0	0,0	16,8	13,9	0,0	0,0	6,5	0,0	0,0
0,0	13,3	19,2	0,0	14,5	5,6	0,0	0,0	11,5	0,0
0,0	11,8	0,0	6,7	0,0	0,0	11,5	0,0	0,0	10,4
9,7	0,0	8,6	0,0	0,0	0,0	0,0	0,0	0,0	5,9
0,0	8,3	0,0	7,8	16,3	0,0	0,0	14,8	0,0	0,0
0,0	0,0	9,6	0,0	0,0	16,8	6,7	0,0	0,0	7,1
0,0	12,3	0,0	0,0	15,5	0,0	17,8	0,0	14,8	5,3
5,3	0,0	10,3	0,0	14,2	0,0	13,2	6,0	14,2	0,0
0,0	13,6	0,0	0,0	0,0	18,7	0,0	12,2	8,7	20,0
19,2	13,0	9,0	0,0	0,0	16,2	0,0	15,9	20,0	0,0
12,1	0,0	9,7	0,0	6,5	14,7	9,7	8,3	0,0	0,0
0,0	9,9	0,0	12,3	0,0	6,9	0,0	14,2	0,0	0,0
13,3	0,0	15,1	19,8	8,0	0,0	0,0	6,5	0,0	0,0
0,0	0,0	17,3	0,0	0,0	11,2	6,8	0,0	17,6	11,8
13,7	0,0	0,0	17,7	7,7	9,0	12,1	10,0	0,0	16,9
0,0	9,5	0,0	18,4	0,0	0,0	16,8	0,0	7,0	10,6
									
4,2	4,7	4,3	4,2	4,1	4,5	2,8	4,0	3,1	3,4
